50 10692

191
343
413
123
173
455
463
274
36
422
109
480
76
356
59
25
424
256
215
16
234
288
377
442
253
395
23
405
302
469
288
99
256
111
314
276
121
293
278
405
363
79
269
379
483
104
351
2
455
343
